min: c;

c = 2.95565730167925 * u1_t7_h4 + 3.51946813546008 * u1_t7_h5 + 4.29600534378369 * u1_t5_h6 + 4.29600534378369 * u1_t7_h6 + 3.84589551011439 * u1_t5_h7 + 3.84589551011439 * u1_t7_h7 + 3.84589551011439 * u1_t9_h7 + 5.26896693652411 * u1_t5_h8 + 5.26896693652411 * u1_t7_h8 + 5.26896693652411 * u1_t9_h8 + 5.26896693652411 * u1_t10_h8 + 4.87525599771488 * u1_t5_h9 + 4.87525599771488 * u1_t7_h9 + 4.87525599771488 * u1_t9_h9 + 4.87525599771488 * u1_t10_h9 + 5.84618246632249 * u1_t5_h10 + 5.84618246632249 * u1_t7_h10 + 5.84618246632249 * u1_t9_h10 + 5.84618246632249 * u1_t10_h10 + 3.92918354736951 * u1_t5_h11 + 3.92918354736951 * u1_t9_h11 + 3.92918354736951 * u1_t10_h11 + 5.87146373131672 * u1_t4_h12 + 5.87146373131672 * u1_t5_h12 + 5.87146373131672 * u1_t8_h12 + 5.87146373131672 * u1_t9_h12 + 5.87146373131672 * u1_t10_h12 + 4.83724348205868 * u1_t4_h13 + 4.83724348205868 * u1_t8_h13 + 4.83724348205868 * u1_t9_h13 + 4.83724348205868 * u1_t10_h13 + 5.38319461327561 * u1_t4_h14 + 5.38319461327561 * u1_t8_h14 + 5.38319461327561 * u1_t9_h14 + 5.38319461327561 * u1_t10_h14 + 6.25391786164725 * u1_t4_h15 + 6.25391786164725 * u1_t8_h15 + 6.37186844887613 * u1_t4_h16 + 6.37186844887613 * u1_t8_h16 + 6.01607008960438 * u1_t4_h17 + 6.01607008960438 * u1_t8_h17 + 6.36509480585812 * u1_t2_h18 + 6.36509480585812 * u1_t4_h18 + 6.36509480585812 * u1_t6_h18 + 6.36509480585812 * u1_t8_h18 + 5.82405800019901 * u1_t2_h19 + 5.82405800019901 * u1_t3_h19 + 5.82405800019901 * u1_t4_h19 + 5.82405800019901 * u1_t6_h19 + 5.15432063370679 * u1_t1_h20 + 5.15432063370679 * u1_t2_h20 + 5.15432063370679 * u1_t3_h20 + 5.15432063370679 * u1_t4_h20 + 5.15432063370679 * u1_t6_h20 + 5.36391512842289 * u1_t1_h21 + 5.36391512842289 * u1_t2_h21 + 5.36391512842289 * u1_t3_h21 + 5.17379006733505 * u1_t1_h22 + 5.17379006733505 * u1_t2_h22 + 4.99757560878583 * u1_t1_h23 + 4.99757560878583 * u1_t2_h23;
0 <= u1_t1_h20 <= 1;
0 <= u1_t1_h21 <= 1;
0 <= u1_t1_h22 <= 1;
0 <= u1_t1_h23 <= 1;
u1_t1_h20 + u1_t1_h21 + u1_t1_h22 + u1_t1_h23 = 1;
0 <= u1_t2_h18 <= 1;
0 <= u1_t2_h19 <= 1;
0 <= u1_t2_h20 <= 1;
0 <= u1_t2_h21 <= 1;
0 <= u1_t2_h22 <= 1;
0 <= u1_t2_h23 <= 1;
u1_t2_h18 + u1_t2_h19 + u1_t2_h20 + u1_t2_h21 + u1_t2_h22 + u1_t2_h23 = 2;
0 <= u1_t3_h19 <= 1;
0 <= u1_t3_h20 <= 1;
0 <= u1_t3_h21 <= 1;
u1_t3_h19 + u1_t3_h20 + u1_t3_h21 = 1;
0 <= u1_t4_h12 <= 1;
0 <= u1_t4_h13 <= 1;
0 <= u1_t4_h14 <= 1;
0 <= u1_t4_h15 <= 1;
0 <= u1_t4_h16 <= 1;
0 <= u1_t4_h17 <= 1;
0 <= u1_t4_h18 <= 1;
0 <= u1_t4_h19 <= 1;
0 <= u1_t4_h20 <= 1;
u1_t4_h12 + u1_t4_h13 + u1_t4_h14 + u1_t4_h15 + u1_t4_h16 + u1_t4_h17 + u1_t4_h18 + u1_t4_h19 + u1_t4_h20 = 3;
0 <= u1_t5_h6 <= 1;
0 <= u1_t5_h7 <= 1;
0 <= u1_t5_h8 <= 1;
0 <= u1_t5_h9 <= 1;
0 <= u1_t5_h10 <= 1;
0 <= u1_t5_h11 <= 1;
0 <= u1_t5_h12 <= 1;
u1_t5_h6 + u1_t5_h7 + u1_t5_h8 + u1_t5_h9 + u1_t5_h10 + u1_t5_h11 + u1_t5_h12 = 3;
0 <= u1_t6_h18 <= 1;
0 <= u1_t6_h19 <= 1;
0 <= u1_t6_h20 <= 1;
u1_t6_h18 + u1_t6_h19 + u1_t6_h20 = 2;
0 <= u1_t7_h4 <= 1;
0 <= u1_t7_h5 <= 1;
0 <= u1_t7_h6 <= 1;
0 <= u1_t7_h7 <= 1;
0 <= u1_t7_h8 <= 1;
0 <= u1_t7_h9 <= 1;
0 <= u1_t7_h10 <= 1;
u1_t7_h4 + u1_t7_h5 + u1_t7_h6 + u1_t7_h7 + u1_t7_h8 + u1_t7_h9 + u1_t7_h10 = 2;
0 <= u1_t8_h12 <= 1;
0 <= u1_t8_h13 <= 1;
0 <= u1_t8_h14 <= 1;
0 <= u1_t8_h15 <= 1;
0 <= u1_t8_h16 <= 1;
0 <= u1_t8_h17 <= 1;
0 <= u1_t8_h18 <= 1;
u1_t8_h12 + u1_t8_h13 + u1_t8_h14 + u1_t8_h15 + u1_t8_h16 + u1_t8_h17 + u1_t8_h18 = 2;
0 <= u1_t9_h7 <= 1;
0 <= u1_t9_h8 <= 1;
0 <= u1_t9_h9 <= 1;
0 <= u1_t9_h10 <= 1;
0 <= u1_t9_h11 <= 1;
0 <= u1_t9_h12 <= 1;
0 <= u1_t9_h13 <= 1;
0 <= u1_t9_h14 <= 1;
u1_t9_h7 + u1_t9_h8 + u1_t9_h9 + u1_t9_h10 + u1_t9_h11 + u1_t9_h12 + u1_t9_h13 + u1_t9_h14 = 3;
0 <= u1_t10_h8 <= 1;
0 <= u1_t10_h9 <= 1;
0 <= u1_t10_h10 <= 1;
0 <= u1_t10_h11 <= 1;
0 <= u1_t10_h12 <= 1;
0 <= u1_t10_h13 <= 1;
0 <= u1_t10_h14 <= 1;
u1_t10_h8 + u1_t10_h9 + u1_t10_h10 + u1_t10_h11 + u1_t10_h12 + u1_t10_h13 + u1_t10_h14 = 3;
